32 d 13 16 19 20 27 31 0
33 1 3 0 1 3 12 29 9 32 0
33 d 1 3 12 32 0
34 1 5 0 33 5 9 30 25 22 15 18 0
34 d 5 9 18 0
35 1 0 33 34 24 8 25 21 30 0
35 d 33 34 24 8 25 21 30 0
36 -3 0 35 2 4 11 10 15 14 0
36 d 2 4 15 14 0
37 -5 0 35 36 6 10 29 11 17 28 0
37 d 6 10 11 17 28 0
39 0 35 36 37 7 23 22 26 29 0
